\ENCODING=ISO-8859-1
\Problem name: kMIS

Maximize
 obj: x1 + x2 + x3 + x4 + x5 + x6 + x7 + x8 + x9 + x10 + x11 + x12 + x13 + x14
      + x15 + x16 + x17 + x18 + x19 + x20
Subject To
 c1:   x21 + x22 + x23 + x24 + x25 + x26 + x27 + x28 + x29 + x30 + x31 + x32
       + x33 + x34 + x35 + x36 + x37 + x38 + x39 + x40  = 5
 c2:   x2 + x21 <= 1
 c3:   x3 + x21 <= 1
 c4:   x5 + x21 <= 1
 c5:   x6 + x21 <= 1
 c6:   x8 + x21 <= 1
 c7:   x9 + x21 <= 1
 c8:   x10 + x21 <= 1
 c9:   x13 + x21 <= 1
 c10:  x15 + x21 <= 1
 c11:  x16 + x21 <= 1
 c12:  x17 + x21 <= 1
 c13:  x19 + x21 <= 1
 c14:  x20 + x21 <= 1
 c15:  x1 + x22 <= 1
 c16:  x2 + x22 <= 1
 c17:  x3 + x22 <= 1
 c18:  x4 + x22 <= 1
 c19:  x5 + x22 <= 1
 c20:  x7 + x22 <= 1
 c21:  x8 + x22 <= 1
 c22:  x9 + x22 <= 1
 c23:  x10 + x22 <= 1
 c24:  x11 + x22 <= 1
 c25:  x14 + x22 <= 1
 c26:  x16 + x22 <= 1
 c27:  x17 + x22 <= 1
 c28:  x18 + x22 <= 1
 c29:  x20 + x22 <= 1
 c30:  x1 + x23 <= 1
 c31:  x3 + x23 <= 1
 c32:  x4 + x23 <= 1
 c33:  x5 + x23 <= 1
 c34:  x6 + x23 <= 1
 c35:  x8 + x23 <= 1
 c36:  x11 + x23 <= 1
 c37:  x12 + x23 <= 1
 c38:  x13 + x23 <= 1
 c39:  x14 + x23 <= 1
 c40:  x15 + x23 <= 1
 c41:  x16 + x23 <= 1
 c42:  x17 + x23 <= 1
 c43:  x18 + x23 <= 1
 c44:  x19 + x23 <= 1
 c45:  x20 + x23 <= 1
 c46:  x2 + x24 <= 1
 c47:  x3 + x24 <= 1
 c48:  x5 + x24 <= 1
 c49:  x8 + x24 <= 1
 c50:  x9 + x24 <= 1
 c51:  x10 + x24 <= 1
 c52:  x11 + x24 <= 1
 c53:  x12 + x24 <= 1
 c54:  x13 + x24 <= 1
 c55:  x14 + x24 <= 1
 c56:  x16 + x24 <= 1
 c57:  x17 + x24 <= 1
 c58:  x18 + x24 <= 1
 c59:  x20 + x24 <= 1
 c60:  x2 + x25 <= 1
 c61:  x3 + x25 <= 1
 c62:  x4 + x25 <= 1
 c63:  x5 + x25 <= 1
 c64:  x6 + x25 <= 1
 c65:  x8 + x25 <= 1
 c66:  x9 + x25 <= 1
 c67:  x10 + x25 <= 1
 c68:  x11 + x25 <= 1
 c69:  x12 + x25 <= 1
 c70:  x15 + x25 <= 1
 c71:  x17 + x25 <= 1
 c72:  x18 + x25 <= 1
 c73:  x19 + x25 <= 1
 c74:  x1 + x26 <= 1
 c75:  x3 + x26 <= 1
 c76:  x4 + x26 <= 1
 c77:  x5 + x26 <= 1
 c78:  x6 + x26 <= 1
 c79:  x7 + x26 <= 1
 c80:  x8 + x26 <= 1
 c81:  x10 + x26 <= 1
 c82:  x11 + x26 <= 1
 c83:  x12 + x26 <= 1
 c84:  x13 + x26 <= 1
 c85:  x14 + x26 <= 1
 c86:  x16 + x26 <= 1
 c87:  x17 + x26 <= 1
 c88:  x18 + x26 <= 1
 c89:  x19 + x26 <= 1
 c90:  x20 + x26 <= 1
 c91:  x2 + x27 <= 1
 c92:  x3 + x27 <= 1
 c93:  x5 + x27 <= 1
 c94:  x8 + x27 <= 1
 c95:  x9 + x27 <= 1
 c96:  x10 + x27 <= 1
 c97:  x11 + x27 <= 1
 c98:  x12 + x27 <= 1
 c99:  x13 + x27 <= 1
 c100: x14 + x27 <= 1
 c101: x15 + x27 <= 1
 c102: x16 + x27 <= 1
 c103: x17 + x27 <= 1
 c104: x18 + x27 <= 1
 c105: x20 + x27 <= 1
 c106: x1 + x28 <= 1
 c107: x3 + x28 <= 1
 c108: x4 + x28 <= 1
 c109: x5 + x28 <= 1
 c110: x6 + x28 <= 1
 c111: x7 + x28 <= 1
 c112: x8 + x28 <= 1
 c113: x10 + x28 <= 1
 c114: x11 + x28 <= 1
 c115: x12 + x28 <= 1
 c116: x13 + x28 <= 1
 c117: x14 + x28 <= 1
 c118: x16 + x28 <= 1
 c119: x17 + x28 <= 1
 c120: x18 + x28 <= 1
 c121: x19 + x28 <= 1
 c122: x20 + x28 <= 1
 c123: x2 + x29 <= 1
 c124: x3 + x29 <= 1
 c125: x5 + x29 <= 1
 c126: x6 + x29 <= 1
 c127: x8 + x29 <= 1
 c128: x9 + x29 <= 1
 c129: x10 + x29 <= 1
 c130: x13 + x29 <= 1
 c131: x15 + x29 <= 1
 c132: x16 + x29 <= 1
 c133: x17 + x29 <= 1
 c134: x19 + x29 <= 1
 c135: x20 + x29 <= 1
 c136: x1 + x30 <= 1
 c137: x2 + x30 <= 1
 c138: x3 + x30 <= 1
 c139: x4 + x30 <= 1
 c140: x5 + x30 <= 1
 c141: x7 + x30 <= 1
 c142: x8 + x30 <= 1
 c143: x9 + x30 <= 1
 c144: x10 + x30 <= 1
 c145: x11 + x30 <= 1
 c146: x14 + x30 <= 1
 c147: x16 + x30 <= 1
 c148: x17 + x30 <= 1
 c149: x18 + x30 <= 1
 c150: x20 + x30 <= 1
 c151: x1 + x31 <= 1
 c152: x2 + x31 <= 1
 c153: x3 + x31 <= 1
 c154: x4 + x31 <= 1
 c155: x5 + x31 <= 1
 c156: x6 + x31 <= 1
 c157: x7 + x31 <= 1
 c158: x8 + x31 <= 1
 c159: x11 + x31 <= 1
 c160: x12 + x31 <= 1
 c161: x13 + x31 <= 1
 c162: x15 + x31 <= 1
 c163: x16 + x31 <= 1
 c164: x17 + x31 <= 1
 c165: x18 + x31 <= 1
 c166: x19 + x31 <= 1
 c167: x20 + x31 <= 1
 c168: x1 + x32 <= 1
 c169: x2 + x32 <= 1
 c170: x3 + x32 <= 1
 c171: x4 + x32 <= 1
 c172: x5 + x32 <= 1
 c173: x7 + x32 <= 1
 c174: x8 + x32 <= 1
 c175: x10 + x32 <= 1
 c176: x11 + x32 <= 1
 c177: x13 + x32 <= 1
 c178: x14 + x32 <= 1
 c179: x15 + x32 <= 1
 c180: x18 + x32 <= 1
 c181: x20 + x32 <= 1
 c182: x1 + x33 <= 1
 c183: x2 + x33 <= 1
 c184: x4 + x33 <= 1
 c185: x6 + x33 <= 1
 c186: x7 + x33 <= 1
 c187: x8 + x33 <= 1
 c188: x9 + x33 <= 1
 c189: x10 + x33 <= 1
 c190: x12 + x33 <= 1
 c191: x13 + x33 <= 1
 c192: x14 + x33 <= 1
 c193: x15 + x33 <= 1
 c194: x16 + x33 <= 1
 c195: x18 + x33 <= 1
 c196: x19 + x33 <= 1
 c197: x1 + x34 <= 1
 c198: x2 + x34 <= 1
 c199: x4 + x34 <= 1
 c200: x5 + x34 <= 1
 c201: x6 + x34 <= 1
 c202: x7 + x34 <= 1
 c203: x9 + x34 <= 1
 c204: x11 + x34 <= 1
 c205: x12 + x34 <= 1
 c206: x13 + x34 <= 1
 c207: x15 + x34 <= 1
 c208: x17 + x34 <= 1
 c209: x18 + x34 <= 1
 c210: x19 + x34 <= 1
 c211: x20 + x34 <= 1
 c212: x1 + x35 <= 1
 c213: x3 + x35 <= 1
 c214: x4 + x35 <= 1
 c215: x5 + x35 <= 1
 c216: x6 + x35 <= 1
 c217: x8 + x35 <= 1
 c218: x10 + x35 <= 1
 c219: x11 + x35 <= 1
 c220: x12 + x35 <= 1
 c221: x13 + x35 <= 1
 c222: x14 + x35 <= 1
 c223: x16 + x35 <= 1
 c224: x17 + x35 <= 1
 c225: x18 + x35 <= 1
 c226: x19 + x35 <= 1
 c227: x20 + x35 <= 1
 c228: x2 + x36 <= 1
 c229: x3 + x36 <= 1
 c230: x5 + x36 <= 1
 c231: x6 + x36 <= 1
 c232: x8 + x36 <= 1
 c233: x9 + x36 <= 1
 c234: x10 + x36 <= 1
 c235: x13 + x36 <= 1
 c236: x15 + x36 <= 1
 c237: x16 + x36 <= 1
 c238: x17 + x36 <= 1
 c239: x19 + x36 <= 1
 c240: x20 + x36 <= 1
 c241: x1 + x37 <= 1
 c242: x2 + x37 <= 1
 c243: x3 + x37 <= 1
 c244: x4 + x37 <= 1
 c245: x5 + x37 <= 1
 c246: x7 + x37 <= 1
 c247: x8 + x37 <= 1
 c248: x9 + x37 <= 1
 c249: x10 + x37 <= 1
 c250: x11 + x37 <= 1
 c251: x13 + x37 <= 1
 c252: x14 + x37 <= 1
 c253: x16 + x37 <= 1
 c254: x17 + x37 <= 1
 c255: x18 + x37 <= 1
 c256: x20 + x37 <= 1
 c257: x1 + x38 <= 1
 c258: x3 + x38 <= 1
 c259: x4 + x38 <= 1
 c260: x5 + x38 <= 1
 c261: x6 + x38 <= 1
 c262: x8 + x38 <= 1
 c263: x10 + x38 <= 1
 c264: x11 + x38 <= 1
 c265: x12 + x38 <= 1
 c266: x13 + x38 <= 1
 c267: x14 + x38 <= 1
 c268: x16 + x38 <= 1
 c269: x17 + x38 <= 1
 c270: x18 + x38 <= 1
 c271: x19 + x38 <= 1
 c272: x20 + x38 <= 1
 c273: x2 + x39 <= 1
 c274: x3 + x39 <= 1
 c275: x5 + x39 <= 1
 c276: x8 + x39 <= 1
 c277: x9 + x39 <= 1
 c278: x10 + x39 <= 1
 c279: x11 + x39 <= 1
 c280: x12 + x39 <= 1
 c281: x13 + x39 <= 1
 c282: x14 + x39 <= 1
 c283: x15 + x39 <= 1
 c284: x16 + x39 <= 1
 c285: x17 + x39 <= 1
 c286: x20 + x39 <= 1
 c287: x1 + x40 <= 1
 c288: x2 + x40 <= 1
 c289: x3 + x40 <= 1
 c290: x4 + x40 <= 1
 c291: x5 + x40 <= 1
 c292: x6 + x40 <= 1
 c293: x7 + x40 <= 1
 c294: x8 + x40 <= 1
 c295: x10 + x40 <= 1
 c296: x11 + x40 <= 1
 c297: x12 + x40 <= 1
 c298: x13 + x40 <= 1
 c299: x14 + x40 <= 1
 c300: x16 + x40 <= 1
 c301: x17 + x40 <= 1
 c302: x18 + x40 <= 1
 c303: x19 + x40 <= 1
 c304: x20 + x40 <= 1
Bounds
 0 <= x1 <= 1
 0 <= x2 <= 1
 0 <= x3 <= 1
 0 <= x4 <= 1
 0 <= x5 <= 1
 0 <= x6 <= 1
 0 <= x7 <= 1
 0 <= x8 <= 1
 0 <= x9 <= 1
 0 <= x10 <= 1
 0 <= x11 <= 1
 0 <= x12 <= 1
 0 <= x13 <= 1
 0 <= x14 <= 1
 0 <= x15 <= 1
 0 <= x16 <= 1
 0 <= x17 <= 1
 0 <= x18 <= 1
 0 <= x19 <= 1
 0 <= x20 <= 1
 0 <= x21 <= 1
 0 <= x22 <= 1
 0 <= x23 <= 1
 0 <= x24 <= 1
 0 <= x25 <= 1
 0 <= x26 <= 1
 0 <= x27 <= 1
 0 <= x28 <= 1
 0 <= x29 <= 1
 0 <= x30 <= 1
 0 <= x31 <= 1
 0 <= x32 <= 1
 0 <= x33 <= 1
 0 <= x34 <= 1
 0 <= x35 <= 1
 0 <= x36 <= 1
 0 <= x37 <= 1
 0 <= x38 <= 1
 0 <= x39 <= 1
 0 <= x40 <= 1
Binaries
 x1  x2  x3  x4  x5  x6  x7  x8  x9  x10  x11  x12  x13  x14  x15  x16  x17 
 x18  x19  x20  x21  x22  x23  x24  x25  x26  x27  x28  x29  x30  x31  x32 
 x33  x34  x35  x36  x37  x38  x39  x40 
End
